100
300
40
0 0
59 60
9 70
97 18
69 77
11 23
28 19
48 78
13 27
57 39
16 89
87 17
64 36
9 50
35 40
64 56
15 83
32 37
78 16
24 33
23 46
20 80
13 66
81 37
32 34
29 32
38 50
33 95
15 44
42 48
23 89
45 19
67 41
2 37
28 68
46 12
18 74
32 67
89 26
14 36
17 40
0 0
50
60
50
60
30
70
50
50
40
40
50
60
30
50
50
50
30
50
50
50
50
60
50
60
30
70
50
50
40
40
50
60
30
50
50
50
30
50
50
50
